&control
  calculation='scf'
  prefix='ethane'
  pseudo_dir='../../pseudo-potentials'
  outdir='./out'
  restart_mode='from_scratch'
  nstep=20000
  max_seconds=14000
  tprnfor=.true.
  disk_io='none'
/
&system
  ibrav=1
  a=10
  nat=8
  ntyp=2,
  ecutwfc=50
/
&electrons
  electron_maxstep = 100
  mixing_beta = 0.2
  conv_thr = 1.D-6
/
&ions
/
&cell
/
ATOMIC_SPECIES
C   1.0  C_ONCV_PBE-1.0.upf 
H   1.0  H_ONCV_PBE-1.0.upf 
ATOMIC_POSITIONS {angstrom}
C 17.5422 21.77036 19.96084
C 18.42872 23.02368 20.04144
H 17.16184 21.5258 20.94952
H 17.88428 20.84276 19.44788
H 16.65728 22.09944 19.39008
H 19.53056 22.91968 19.69068
H 18.29628 23.42564 21.09156
H 17.94804 23.84408 19.4032
