&control
  calculation='scf'
  prefix='ethane'
  pseudo_dir='../../pseudo-potentials'
  outdir='./out'
  restart_mode='from_scratch'
  nstep=20000
  max_seconds=14000
  tprnfor=.true.
  disk_io='none'
/
&system
  ibrav=1
  a=10
  nat=8
  ntyp=2,
  ecutwfc=50
/
&electrons
  electron_maxstep = 100
  mixing_beta = 0.2
  conv_thr = 1.D-6
/
&ions
/
&cell
/
ATOMIC_SPECIES
C   1.0  C_ONCV_PBE-1.0.upf 
H   1.0  H_ONCV_PBE-1.0.upf 
ATOMIC_POSITIONS {angstrom}
C 17.46624 21.82556 19.9148
C 18.47556 22.97308 20.11504
H 17.97028 20.98184 19.54516
H 16.804 22.07704 19.1318
H 16.76856 21.61688 20.70256
H 18.3236 23.68168 20.91488
H 18.46924 23.59504 19.19976
H 19.48936 22.65016 20.15024
