&control
  calculation='scf'
  prefix='ethane'
  pseudo_dir='../../pseudo-potentials'
  outdir='./out'
  restart_mode='from_scratch'
  nstep=20000
  max_seconds=14000
  tprnfor=.true.
  disk_io='none'
/
&system
  ibrav=1
  a=10
  nat=8
  ntyp=2,
  ecutwfc=50
/
&electrons
  electron_maxstep = 100
  mixing_beta = 0.2
  conv_thr = 1.D-6
/
&ions
/
&cell
/
ATOMIC_SPECIES
C   1.0  C_ONCV_PBE-1.0.upf 
H   1.0  H_ONCV_PBE-1.0.upf 
ATOMIC_POSITIONS {angstrom}
C 17.4602 21.82528 19.89216
C 18.48196 22.97944 20.1322
H 18.01736 21.15852 19.25596
H 16.58484 22.0968 19.2688
H 16.924 21.36428 20.76632
H 18.52764 23.54748 19.17344
H 19.49996 22.6582 20.33616
H 18.2668 23.70504 20.90916
