&control
  calculation='scf'
  prefix='ethane'
  pseudo_dir='../../pseudo-potentials'
  outdir='./out'
  restart_mode='from_scratch'
  nstep=20000
  max_seconds=14000
  tprnfor=.true.
  disk_io='none'
/
&system
  ibrav=1
  a=10
  nat=8
  ntyp=2,
  ecutwfc=50
/
&electrons
  electron_maxstep = 100
  mixing_beta = 0.2
  conv_thr = 1.D-6
/
&ions
/
&cell
/
ATOMIC_SPECIES
C   1.0  C_ONCV_PBE-1.0.upf 
H   1.0  H_ONCV_PBE-1.0.upf 
ATOMIC_POSITIONS {angstrom}
C 17.53848 21.76136 19.96996
C 18.4116 23.05492 20.02612
H 16.59084 21.92132 19.4272
H 17.19292 21.36996 20.91216
H 18.2118 21.00116 19.56468
H 19.41052 22.93024 19.61364
H 18.57008 23.44636 21.043
H 17.75048 23.72336 19.48604
