&control
  calculation='scf'
  prefix='ethane'
  pseudo_dir='../../pseudo-potentials'
  outdir='./out'
  restart_mode='from_scratch'
  nstep=20000
  max_seconds=14000
  tprnfor=.true.
  disk_io='none'
/
&system
  ibrav=1
  a=10
  nat=8
  ntyp=2,
  ecutwfc=50
/
&electrons
  electron_maxstep = 100
  mixing_beta = 0.2
  conv_thr = 1.D-6
/
&ions
/
&cell
/
ATOMIC_SPECIES
C   1.0  C_ONCV_PBE-1.0.upf 
H   1.0  H_ONCV_PBE-1.0.upf 
ATOMIC_POSITIONS {angstrom}
C 17.49212 21.8066 19.96804
C 18.44556 23.00556 20.02236
H 17.94656 21.04104 20.62016
H 17.3934 21.42492 18.97408
H 16.41876 21.95456 20.39048
H 19.35284 22.78568 20.53948
H 18.07196 23.8336 20.6044
H 18.69052 23.40176 18.9858
