&control
  calculation='scf'
  prefix='ethane'
  pseudo_dir='../../pseudo-potentials'
  outdir='./out'
  restart_mode='from_scratch'
  nstep=20000
  max_seconds=14000
  tprnfor=.true.
  disk_io='none'
/
&system
  ibrav=1
  a=10
  nat=8
  ntyp=2,
  ecutwfc=50
/
&electrons
  electron_maxstep = 100
  mixing_beta = 0.2
  conv_thr = 1.D-6
/
&ions
/
&cell
/
ATOMIC_SPECIES
C   1.0  C_ONCV_PBE-1.0.upf 
H   1.0  H_ONCV_PBE-1.0.upf 
ATOMIC_POSITIONS {angstrom}
C 17.37948 21.9212 19.83688
C 18.58108 22.86032 20.17668
H 16.86112 22.39316 18.95516
H 16.64248 22.00232 20.64956
H 17.65676 20.8626 19.566
H 18.17616 23.86848 20.0234
H 19.3822 22.71152 19.43008
H 18.88232 22.9682 21.21408
