&control
  calculation='scf'
  prefix='ethane'
  pseudo_dir='../../pseudo-potentials'
  outdir='./out'
  restart_mode='from_scratch'
  nstep=20000
  max_seconds=14000
  tprnfor=.true.
  disk_io='none'
/
&system
  ibrav=1
  a=10
  nat=8
  ntyp=2,
  ecutwfc=50
/
&electrons
  electron_maxstep = 100
  mixing_beta = 0.2
  conv_thr = 1.D-6
/
&ions
/
&cell
/
ATOMIC_SPECIES
C   1.0  C_ONCV_PBE-1.0.upf 
H   1.0  H_ONCV_PBE-1.0.upf 
ATOMIC_POSITIONS {angstrom}
C 17.44912 21.85576 19.88364
C 18.50704 22.94708 20.12036
H 17.22528 21.13388 20.75332
H 17.58348 21.35412 18.91224
H 16.51964 22.50396 19.70224
H 18.02896 23.81576 20.40476
H 19.15176 23.10744 19.2584
H 19.1444 22.63712 20.92136
