&control
  calculation='scf'
  prefix='ethane'
  pseudo_dir='../../pseudo-potentials'
  outdir='./out'
  restart_mode='from_scratch'
  nstep=20000
  max_seconds=14000
  tprnfor=.true.
  disk_io='none'
/
&system
  ibrav=1
  a=10
  nat=8
  ntyp=2,
  ecutwfc=50
/
&electrons
  electron_maxstep = 100
  mixing_beta = 0.2
  conv_thr = 1.D-6
/
&ions
/
&cell
/
ATOMIC_SPECIES
C   1.0  C_ONCV_PBE-1.0.upf 
H   1.0  H_ONCV_PBE-1.0.upf 
ATOMIC_POSITIONS {angstrom}
C 17.49948 21.81368 19.92984
C 18.4418 22.99292 20.06492
H 17.18864 21.54704 18.9728
H 16.6082 21.81104 20.6122
H 18.09056 20.93344 20.26908
H 18.53476 23.67196 19.12084
H 19.43516 22.77156 20.42044
H 17.974 23.77276 20.66676
