&control
  calculation='scf'
  prefix='ethane'
  pseudo_dir='../../pseudo-potentials'
  outdir='./out'
  restart_mode='from_scratch'
  nstep=20000
  max_seconds=14000
  tprnfor=.true.
  disk_io='none'
/
&system
  ibrav=1
  a=10
  nat=8
  ntyp=2,
  ecutwfc=50
/
&electrons
  electron_maxstep = 100
  mixing_beta = 0.2
  conv_thr = 1.D-6
/
&ions
/
&cell
/
ATOMIC_SPECIES
C   1.0  C_ONCV_PBE-1.0.upf 
H   1.0  H_ONCV_PBE-1.0.upf 
ATOMIC_POSITIONS {angstrom}
C 17.40608 21.87264 19.82504
C 18.51536 22.95028 20.15948
H 16.68168 22.1 19.06724
H 16.86452 21.64192 20.73216
H 18.01396 21.02692 19.68972
H 18.25884 23.9716 20.38972
H 19.14224 23.03412 19.32668
H 19.10656 22.53864 20.97904
