&control
  calculation='scf'
  prefix='ethane'
  pseudo_dir='../../pseudo-potentials'
  outdir='./out'
  restart_mode='from_scratch'
  nstep=20000
  max_seconds=14000
  tprnfor=.true.
  disk_io='none'
/
&system
  ibrav=1
  a=10
  nat=8
  ntyp=2,
  ecutwfc=50
/
&electrons
  electron_maxstep = 100
  mixing_beta = 0.2
  conv_thr = 1.D-6
/
&ions
/
&cell
/
ATOMIC_SPECIES
C   1.0  C_ONCV_PBE-1.0.upf 
H   1.0  H_ONCV_PBE-1.0.upf 
ATOMIC_POSITIONS {angstrom}
C 17.46872 21.8322 19.8506
C 18.47152 22.98 20.12024
H 17.39464 21.45692 18.80524
H 16.43316 22.054 20.11496
H 17.71716 21.02336 20.52712
H 18.88344 23.52736 19.30492
H 19.41232 22.65208 20.75892
H 18.00264 23.72744 20.83604
