&control
  calculation='scf'
  prefix='ethane'
  pseudo_dir='../../pseudo-potentials'
  outdir='./out'
  restart_mode='from_scratch'
  nstep=20000
  max_seconds=14000
  tprnfor=.true.
  disk_io='none'
/
&system
  ibrav=1
  a=10
  nat=8
  ntyp=2,
  ecutwfc=50
/
&electrons
  electron_maxstep = 100
  mixing_beta = 0.2
  conv_thr = 1.D-6
/
&ions
/
&cell
/
ATOMIC_SPECIES
C   1.0  C_ONCV_PBE-1.0.upf 
H   1.0  H_ONCV_PBE-1.0.upf 
ATOMIC_POSITIONS {angstrom}
C 17.46808 21.81548 20.035
C 18.47112 22.98964 19.95424
H 16.522 22.22464 20.42992
H 17.51464 21.06484 20.90716
H 17.45736 21.38984 19.01964
H 18.50844 23.61792 20.91172
H 18.33348 23.66564 19.08324
H 19.52008 22.56236 19.7768
