&control
  calculation='scf'
  prefix='ethane'
  pseudo_dir='../../pseudo-potentials'
  outdir='./out'
  restart_mode='from_scratch'
  nstep=20000
  max_seconds=14000
  tprnfor=.true.
  disk_io='none'
/
&system
  ibrav=1
  a=10
  nat=8
  ntyp=2,
  ecutwfc=50
/
&electrons
  electron_maxstep = 100
  mixing_beta = 0.2
  conv_thr = 1.D-6
/
&ions
/
&cell
/
ATOMIC_SPECIES
C   1.0  C_ONCV_PBE-1.0.upf 
H   1.0  H_ONCV_PBE-1.0.upf 
ATOMIC_POSITIONS {angstrom}
C 17.4374 21.86636 19.81876
C 18.50504 22.95512 20.15424
H 17.874 20.78804 19.72364
H 16.72408 21.98512 19.01712
H 16.91264 21.8468 20.73776
H 19.32456 22.44868 20.58592
H 18.16976 23.70592 20.94072
H 18.81208 23.5558 19.31636
