&control
  calculation='scf'
  prefix='ethane'
  pseudo_dir='../../pseudo-potentials'
  outdir='./out'
  restart_mode='from_scratch'
  nstep=20000
  max_seconds=14000
  tprnfor=.true.
  disk_io='none'
/
&system
  ibrav=1
  a=10
  nat=8
  ntyp=2,
  ecutwfc=50
/
&electrons
  electron_maxstep = 100
  mixing_beta = 0.2
  conv_thr = 1.D-6
/
&ions
/
&cell
/
ATOMIC_SPECIES
C   1.0  C_ONCV_PBE-1.0.upf 
H   1.0  H_ONCV_PBE-1.0.upf 
ATOMIC_POSITIONS {angstrom}
C 17.48816 21.79608 19.90336
C 18.44916 23.00756 20.12632
H 16.84964 22.1316 19.0418
H 16.69644 21.63104 20.67424
H 18.07008 20.87604 19.52752
H 19.45924 22.5288 19.9818
H 18.392 23.58496 21.06348
H 18.41124 23.79092 19.35776
