&control
  calculation='scf'
  prefix='ethane'
  pseudo_dir='../../pseudo-potentials'
  outdir='./out'
  restart_mode='from_scratch'
  nstep=20000
  max_seconds=14000
  tprnfor=.true.
  disk_io='none'
/
&system
  ibrav=1
  a=10
  nat=8
  ntyp=2,
  ecutwfc=50
/
&electrons
  electron_maxstep = 100
  mixing_beta = 0.2
  conv_thr = 1.D-6
/
&ions
/
&cell
/
ATOMIC_SPECIES
C   1.0  C_ONCV_PBE-1.0.upf 
H   1.0  H_ONCV_PBE-1.0.upf 
ATOMIC_POSITIONS {angstrom}
C 17.54296 21.80012 19.92496
C 18.3808 23.0212 20.04536
H 17.46212 21.3392 20.88
H 18.03088 21.04604 19.31028
H 16.466 22.0094 19.64332
H 18.84544 22.92004 21.05376
H 17.8884 23.96972 20.04764
H 19.3468 23.04836 19.41848
