&control
  calculation='scf'
  prefix='ethane'
  pseudo_dir='../../pseudo-potentials'
  outdir='./out'
  restart_mode='from_scratch'
  nstep=20000
  max_seconds=14000
  tprnfor=.true.
  disk_io='none'
/
&system
  ibrav=1
  a=10
  nat=8
  ntyp=2,
  ecutwfc=50
/
&electrons
  electron_maxstep = 100
  mixing_beta = 0.2
  conv_thr = 1.D-6
/
&ions
/
&cell
/
ATOMIC_SPECIES
C   1.0  C_ONCV_PBE-1.0.upf 
H   1.0  H_ONCV_PBE-1.0.upf 
ATOMIC_POSITIONS {angstrom}
C 17.49076 21.77148 19.9544
C 18.41416 23.0364 20.04796
H 16.74696 21.7658 20.71452
H 18.14512 20.92204 20.11692
H 17.15992 21.72056 18.88216
H 18.66652 23.47124 19.07612
H 19.36412 22.76044 20.438
H 18.18176 23.85236 20.74416
