&control
  calculation='scf'
  prefix='ethane'
  pseudo_dir='../../pseudo-potentials'
  outdir='./out'
  restart_mode='from_scratch'
  nstep=20000
  max_seconds=14000
  tprnfor=.true.
  disk_io='none'
/
&system
  ibrav=1
  a=10
  nat=8
  ntyp=2,
  ecutwfc=50
/
&electrons
  electron_maxstep = 100
  mixing_beta = 0.2
  conv_thr = 1.D-6
/
&ions
/
&cell
/
ATOMIC_SPECIES
C   1.0  C_ONCV_PBE-1.0.upf 
H   1.0  H_ONCV_PBE-1.0.upf 
ATOMIC_POSITIONS {angstrom}
C 17.39 21.87016 19.89344
C 18.5594 22.92412 20.10592
H 17.74628 20.84744 19.96976
H 17.00976 22.13 18.87424
H 16.57148 21.95712 20.59548
H 19.49812 22.53192 20.52312
H 18.1488 23.64288 20.80964
H 18.76 23.54516 19.23508
