&control
  calculation='scf'
  prefix='ethane'
  pseudo_dir='../../pseudo-potentials'
  outdir='./out'
  restart_mode='from_scratch'
  nstep=20000
  max_seconds=14000
  tprnfor=.true.
  disk_io='none'
/
&system
  ibrav=1
  a=10
  nat=8
  ntyp=2,
  ecutwfc=50
/
&electrons
  electron_maxstep = 100
  mixing_beta = 0.2
  conv_thr = 1.D-6
/
&ions
/
&cell
/
ATOMIC_SPECIES
C   1.0  C_ONCV_PBE-1.0.upf 
H   1.0  H_ONCV_PBE-1.0.upf 
ATOMIC_POSITIONS {angstrom}
C 17.46772 21.8338 20.02896
C 18.47376 22.97588 19.97924
H 17.08716 21.58112 19.02984
H 16.62552 22.09216 20.6986
H 17.91728 20.92444 20.37836
H 19.385 22.7406 20.42416
H 18.13084 23.8806 20.43188
H 18.68304 23.25232 18.93948
