&control
  calculation='scf'
  prefix='ethane'
  pseudo_dir='../../pseudo-potentials'
  outdir='./out'
  restart_mode='from_scratch'
  nstep=20000
  max_seconds=14000
  tprnfor=.true.
  disk_io='none'
/
&system
  ibrav=1
  a=10
  nat=8
  ntyp=2,
  ecutwfc=50
/
&electrons
  electron_maxstep = 100
  mixing_beta = 0.2
  conv_thr = 1.D-6
/
&ions
/
&cell
/
ATOMIC_SPECIES
C   1.0  C_ONCV_PBE-1.0.upf 
H   1.0  H_ONCV_PBE-1.0.upf 
ATOMIC_POSITIONS {angstrom}
C 17.52436 21.77564 19.98096
C 18.41648 23.04004 20.03412
H 17.59776 21.147 20.84764
H 17.75944 21.13768 19.11456
H 16.53088 22.12144 19.81792
H 19.1932 23.07636 20.77324
H 17.74624 23.85956 20.10284
H 19.0086 23.05772 19.16428
