&control
  calculation='scf'
  prefix='ethane'
  pseudo_dir='../../pseudo-potentials'
  outdir='./out'
  restart_mode='from_scratch'
  nstep=20000
  max_seconds=14000
  tprnfor=.true.
  disk_io='none'
/
&system
  ibrav=1
  a=10
  nat=8
  ntyp=2,
  ecutwfc=50
/
&electrons
  electron_maxstep = 100
  mixing_beta = 0.2
  conv_thr = 1.D-6
/
&ions
/
&cell
/
ATOMIC_SPECIES
C   1.0  C_ONCV_PBE-1.0.upf 
H   1.0  H_ONCV_PBE-1.0.upf 
ATOMIC_POSITIONS {angstrom}
C 17.5602 21.76652 19.98424
C 18.3772 23.04812 20.01004
H 17.04596 21.54116 19.04664
H 16.658 21.80864 20.66288
H 18.24024 20.90028 20.16392
H 18.61904 23.50352 19.06552
H 19.36776 22.84324 20.44736
H 17.9468 23.81516 20.68188
