&control
  calculation='scf'
  prefix='ethane'
  pseudo_dir='../../pseudo-potentials'
  outdir='./out'
  restart_mode='from_scratch'
  nstep=20000
  max_seconds=14000
  tprnfor=.true.
  disk_io='none'
/
&system
  ibrav=1
  a=10
  nat=8
  ntyp=2,
  ecutwfc=50
/
&electrons
  electron_maxstep = 100
  mixing_beta = 0.2
  conv_thr = 1.D-6
/
&ions
/
&cell
/
ATOMIC_SPECIES
C   1.0  C_ONCV_PBE-1.0.upf 
H   1.0  H_ONCV_PBE-1.0.upf 
ATOMIC_POSITIONS {angstrom}
C 17.53468 21.8074 19.9472
C 18.4162 23.0166 20.0586
H 17.49704 21.18676 20.81724
H 17.82684 21.12936 19.20352
H 16.45436 22.02676 19.69444
H 19.07308 22.96344 20.95416
H 17.8556 24.00304 20.08412
H 19.00968 22.991 19.1772
