&control
  calculation='scf'
  prefix='ethane'
  pseudo_dir='../../pseudo-potentials'
  outdir='./out'
  restart_mode='from_scratch'
  nstep=20000
  max_seconds=14000
  tprnfor=.true.
  disk_io='none'
/
&system
  ibrav=1
  a=10
  nat=8
  ntyp=2,
  ecutwfc=50
/
&electrons
  electron_maxstep = 100
  mixing_beta = 0.2
  conv_thr = 1.D-6
/
&ions
/
&cell
/
ATOMIC_SPECIES
C   1.0  C_ONCV_PBE-1.0.upf 
H   1.0  H_ONCV_PBE-1.0.upf 
ATOMIC_POSITIONS {angstrom}
C 17.57944 21.7242 19.9886
C 18.36064 23.07524 20.05104
H 18.02832 21.07676 19.20068
H 16.65576 22.01672 19.53348
H 17.3694 21.26316 20.9306
H 17.98804 23.70052 19.21504
H 19.38568 22.89392 19.64688
H 18.41824 23.64168 21.00124
