&control
  calculation='scf'
  prefix='ethane'
  pseudo_dir='../../pseudo-potentials'
  outdir='./out'
  restart_mode='from_scratch'
  nstep=20000
  max_seconds=14000
  tprnfor=.true.
  disk_io='none'
/
&system
  ibrav=1
  a=10
  nat=8
  ntyp=2,
  ecutwfc=50
/
&electrons
  electron_maxstep = 100
  mixing_beta = 0.2
  conv_thr = 1.D-6
/
&ions
/
&cell
/
ATOMIC_SPECIES
C   1.0  C_ONCV_PBE-1.0.upf 
H   1.0  H_ONCV_PBE-1.0.upf 
ATOMIC_POSITIONS {angstrom}
C 17.43048 21.83408 19.91856
C 18.5082 22.96984 20.07252
H 16.48308 22.1392 19.46248
H 17.323 21.51048 20.94512
H 17.7452 20.9224 19.39044
H 18.67428 23.34756 21.10316
H 18.09176 23.81548 19.50496
H 19.54504 22.80464 19.70008
