&control
  calculation='scf'
  prefix='ethane'
  pseudo_dir='../../pseudo-potentials'
  outdir='./out'
  restart_mode='from_scratch'
  nstep=20000
  max_seconds=14000
  tprnfor=.true.
  disk_io='none'
/
&system
  ibrav=1
  a=10
  nat=8
  ntyp=2,
  ecutwfc=50
/
&electrons
  electron_maxstep = 100
  mixing_beta = 0.2
  conv_thr = 1.D-6
/
&ions
/
&cell
/
ATOMIC_SPECIES
C   1.0  C_ONCV_PBE-1.0.upf 
H   1.0  H_ONCV_PBE-1.0.upf 
ATOMIC_POSITIONS {angstrom}
C 17.41404 21.84924 19.86836
C 18.5364 22.96388 20.15128
H 16.60824 21.73572 20.6534
H 17.72744 20.8094 19.71928
H 17.01948 22.12596 18.90808
H 18.53344 23.7762 19.37304
H 19.55588 22.53632 20.07428
H 18.27776 23.44656 21.038
