&control
  calculation='scf'
  prefix='ethane'
  pseudo_dir='../../pseudo-potentials'
  outdir='./out'
  restart_mode='from_scratch'
  nstep=20000
  max_seconds=14000
  tprnfor=.true.
  disk_io='none'
/
&system
  ibrav=1
  a=10
  nat=8
  ntyp=2,
  ecutwfc=50
/
&electrons
  electron_maxstep = 100
  mixing_beta = 0.2
  conv_thr = 1.D-6
/
&ions
/
&cell
/
ATOMIC_SPECIES
C   1.0  C_ONCV_PBE-1.0.upf 
H   1.0  H_ONCV_PBE-1.0.upf 
ATOMIC_POSITIONS {angstrom}
C 17.49352 21.78844 19.98104
C 18.43804 23.03916 20.03288
H 17.16652 21.45276 20.98452
H 18.06528 21.0444 19.3552
H 16.56384 21.84484 19.3502
H 18.22644 23.79796 19.21376
H 19.45392 22.59884 19.87584
H 18.47112 23.51872 21.05496
