&control
  calculation='scf'
  prefix='ethane'
  pseudo_dir='../../pseudo-potentials'
  outdir='./out'
  restart_mode='from_scratch'
  nstep=20000
  max_seconds=14000
  tprnfor=.true.
  disk_io='none'
/
&system
  ibrav=1
  a=10
  nat=8
  ntyp=2,
  ecutwfc=50
/
&electrons
  electron_maxstep = 100
  mixing_beta = 0.2
  conv_thr = 1.D-6
/
&ions
/
&cell
/
ATOMIC_SPECIES
C   1.0  C_ONCV_PBE-1.0.upf 
H   1.0  H_ONCV_PBE-1.0.upf 
ATOMIC_POSITIONS {angstrom}
C 17.53468 21.75196 19.97636
C 18.41112 23.04584 20.04676
H 16.47796 22.08368 19.7124
H 17.5698 21.12056 20.87068
H 17.93852 21.18576 19.13964
H 19.03896 22.98924 19.17524
H 18.93816 23.29908 20.94944
H 17.81412 23.93412 19.87728
