&control
  calculation='scf'
  prefix='ethane'
  pseudo_dir='../../pseudo-potentials'
  outdir='./out'
  restart_mode='from_scratch'
  nstep=20000
  max_seconds=14000
  tprnfor=.true.
  disk_io='none'
/
&system
  ibrav=1
  a=10
  nat=8
  ntyp=2,
  ecutwfc=50
/
&electrons
  electron_maxstep = 100
  mixing_beta = 0.2
  conv_thr = 1.D-6
/
&ions
/
&cell
/
ATOMIC_SPECIES
C   1.0  C_ONCV_PBE-1.0.upf 
H   1.0  H_ONCV_PBE-1.0.upf 
ATOMIC_POSITIONS {angstrom}
C 17.47652 21.83336 19.959
C 18.45908 22.98472 20.04152
H 18.08396 20.95788 20.20488
H 16.84276 21.71716 19.05808
H 16.77988 21.87728 20.82816
H 19.40068 22.55156 19.687
H 18.54856 23.53748 20.96476
H 18.24304 23.72976 19.25096
