&control
  calculation='scf'
  prefix='ethane'
  pseudo_dir='../../pseudo-potentials'
  outdir='./out'
  restart_mode='from_scratch'
  nstep=20000
  max_seconds=14000
  tprnfor=.true.
  disk_io='none'
/
&system
  ibrav=1
  a=10
  nat=8
  ntyp=2,
  ecutwfc=50
/
&electrons
  electron_maxstep = 100
  mixing_beta = 0.2
  conv_thr = 1.D-6
/
&ions
/
&cell
/
ATOMIC_SPECIES
C   1.0  C_ONCV_PBE-1.0.upf 
H   1.0  H_ONCV_PBE-1.0.upf 
ATOMIC_POSITIONS {angstrom}
C 17.48024 21.81228 19.99308
C 18.46756 22.99144 19.99804
H 16.56024 22.04012 20.58592
H 17.8968 20.88048 20.38508
H 17.08536 21.6484 18.9978
H 18.11168 23.80868 20.66032
H 18.6584 23.40288 18.97508
H 19.44084 22.7614 20.50176
