&control
  calculation='scf'
  prefix='ethane'
  pseudo_dir='../../pseudo-potentials'
  outdir='./out'
  restart_mode='from_scratch'
  nstep=20000
  max_seconds=14000
  tprnfor=.true.
  disk_io='none'
/
&system
  ibrav=1
  a=10
  nat=8
  ntyp=2,
  ecutwfc=50
/
&electrons
  electron_maxstep = 100
  mixing_beta = 0.2
  conv_thr = 1.D-6
/
&ions
/
&cell
/
ATOMIC_SPECIES
C   1.0  C_ONCV_PBE-1.0.upf 
H   1.0  H_ONCV_PBE-1.0.upf 
ATOMIC_POSITIONS {angstrom}
C 17.47784 21.84028 20.00816
C 18.44756 22.99208 19.98972
H 18.00424 21.08128 19.35696
H 16.5012 22.02152 19.50028
H 17.31012 21.3556 21.00124
H 19.11448 22.6748 20.76312
H 18.0542 23.9294 20.30172
H 19.03616 23.13828 19.102
