&control
  calculation='scf'
  prefix='ethane'
  pseudo_dir='../../pseudo-potentials'
  outdir='./out'
  restart_mode='from_scratch'
  nstep=20000
  max_seconds=14000
  tprnfor=.true.
  disk_io='none'
/
&system
  ibrav=1
  a=10
  nat=8
  ntyp=2,
  ecutwfc=50
/
&electrons
  electron_maxstep = 100
  mixing_beta = 0.2
  conv_thr = 1.D-6
/
&ions
/
&cell
/
ATOMIC_SPECIES
C   1.0  C_ONCV_PBE-1.0.upf 
H   1.0  H_ONCV_PBE-1.0.upf 
ATOMIC_POSITIONS {angstrom}
C 17.47916 21.79048 19.9482
C 18.473 23.00772 20.05344
H 17.109 21.67052 18.95504
H 16.55748 21.99404 20.52804
H 17.89876 20.92292 20.52872
H 18.44348 23.49244 21.02032
H 18.23492 23.83152 19.349
H 19.45812 22.69652 19.5994
