&control
  calculation='scf'
  prefix='ethane'
  pseudo_dir='../../pseudo-potentials'
  outdir='./out'
  restart_mode='from_scratch'
  nstep=20000
  max_seconds=14000
  tprnfor=.true.
  disk_io='none'
/
&system
  ibrav=1
  a=10
  nat=8
  ntyp=2,
  ecutwfc=50
/
&electrons
  electron_maxstep = 100
  mixing_beta = 0.2
  conv_thr = 1.D-6
/
&ions
/
&cell
/
ATOMIC_SPECIES
C   1.0  C_ONCV_PBE-1.0.upf 
H   1.0  H_ONCV_PBE-1.0.upf 
ATOMIC_POSITIONS {angstrom}
C 17.50776 21.78296 19.953
C 18.44344 23.02728 20.0486
H 17.98356 20.86308 20.0642
H 16.94604 21.87416 19.00048
H 16.71148 21.79872 20.7106
H 18.18752 23.61184 20.90796
H 18.3726 23.6412 19.07268
H 19.51212 22.67532 20.22488
