&control
  calculation='scf'
  prefix='ethane'
  pseudo_dir='../../pseudo-potentials'
  outdir='./out'
  restart_mode='from_scratch'
  nstep=20000
  max_seconds=14000
  tprnfor=.true.
  disk_io='none'
/
&system
  ibrav=1
  a=10
  nat=8
  ntyp=2,
  ecutwfc=50
/
&electrons
  electron_maxstep = 100
  mixing_beta = 0.2
  conv_thr = 1.D-6
/
&ions
/
&cell
/
ATOMIC_SPECIES
C   1.0  C_ONCV_PBE-1.0.upf 
H   1.0  H_ONCV_PBE-1.0.upf 
ATOMIC_POSITIONS {angstrom}
C 17.54856 21.74504 19.97872
C 18.3938 23.05076 20.03136
H 18.10132 21.08952 19.29296
H 16.5182 21.96204 19.59832
H 17.46132 21.31772 21.00132
H 17.75972 23.86464 19.6654
H 19.21084 22.99108 19.30672
H 18.76724 23.41116 21.01496
