&control
  calculation='scf'
  prefix='ethane'
  pseudo_dir='../../pseudo-potentials'
  outdir='./out'
  restart_mode='from_scratch'
  nstep=20000
  max_seconds=14000
  tprnfor=.true.
  disk_io='none'
/
&system
  ibrav=1
  a=10
  nat=8
  ntyp=2,
  ecutwfc=50
/
&electrons
  electron_maxstep = 100
  mixing_beta = 0.2
  conv_thr = 1.D-6
/
&ions
/
&cell
/
ATOMIC_SPECIES
C   1.0  C_ONCV_PBE-1.0.upf 
H   1.0  H_ONCV_PBE-1.0.upf 
ATOMIC_POSITIONS {angstrom}
C 17.45288 21.84056 19.95188
C 18.48892 22.95468 20.04116
H 16.5406 22.18108 20.4618
H 17.8642 20.98568 20.51128
H 17.20052 21.48908 18.9214
H 17.9588 23.80488 20.5566
H 18.7614 23.3372 19.05808
H 19.49972 22.845 20.57348
