&control
  calculation='scf'
  prefix='ethane'
  pseudo_dir='../../pseudo-potentials'
  outdir='./out'
  restart_mode='from_scratch'
  nstep=20000
  max_seconds=14000
  tprnfor=.true.
  disk_io='none'
/
&system
  ibrav=1
  a=10
  nat=8
  ntyp=2,
  ecutwfc=50
/
&electrons
  electron_maxstep = 100
  mixing_beta = 0.2
  conv_thr = 1.D-6
/
&ions
/
&cell
/
ATOMIC_SPECIES
C   1.0  C_ONCV_PBE-1.0.upf 
H   1.0  H_ONCV_PBE-1.0.upf 
ATOMIC_POSITIONS {angstrom}
C 17.44496 21.85296 19.91136
C 18.51268 22.94892 20.10292
H 17.09664 21.29584 20.78752
H 17.637 21.06524 19.12596
H 16.55864 22.39864 19.44248
H 19.24412 23.0756 19.25016
H 19.111 22.81168 20.99132
H 17.98888 23.9168 20.2326
