&control
  calculation='scf'
  prefix='ethane'
  pseudo_dir='../../pseudo-potentials'
  outdir='./out'
  restart_mode='from_scratch'
  nstep=20000
  max_seconds=14000
  tprnfor=.true.
  disk_io='none'
/
&system
  ibrav=1
  a=10
  nat=8
  ntyp=2,
  ecutwfc=50
/
&electrons
  electron_maxstep = 100
  mixing_beta = 0.2
  conv_thr = 1.D-6
/
&ions
/
&cell
/
ATOMIC_SPECIES
C   1.0  C_ONCV_PBE-1.0.upf 
H   1.0  H_ONCV_PBE-1.0.upf 
ATOMIC_POSITIONS {angstrom}
C 17.46708 21.81608 19.96796
C 18.47132 23.0068 20.03532
H 17.12548 21.41352 20.9444
H 17.86584 21.01716 19.29796
H 16.58828 22.16488 19.45788
H 18.06056 23.90128 20.46284
H 18.9844 23.02872 19.10428
H 19.24092 22.78808 20.69384
