&control
  calculation='scf'
  prefix='ethane'
  pseudo_dir='../../pseudo-potentials'
  outdir='./out'
  restart_mode='from_scratch'
  nstep=20000
  max_seconds=14000
  tprnfor=.true.
  disk_io='none'
/
&system
  ibrav=1
  a=10
  nat=8
  ntyp=2,
  ecutwfc=50
/
&electrons
  electron_maxstep = 100
  mixing_beta = 0.2
  conv_thr = 1.D-6
/
&ions
/
&cell
/
ATOMIC_SPECIES
C   1.0  C_ONCV_PBE-1.0.upf 
H   1.0  H_ONCV_PBE-1.0.upf 
ATOMIC_POSITIONS {angstrom}
C 17.49076 21.8036 19.97536
C 18.46212 23.00228 20.04256
H 17.62024 21.43708 18.94984
H 16.43832 22.09188 20.08848
H 17.64528 20.91376 20.65668
H 17.80492 23.94408 20.0992
H 19.00596 23.10312 19.1074
H 19.17792 23.0262 20.88468
