&control
  calculation='scf'
  prefix='ethane'
  pseudo_dir='../../pseudo-potentials'
  outdir='./out'
  restart_mode='from_scratch'
  nstep=20000
  max_seconds=14000
  tprnfor=.true.
  disk_io='none'
/
&system
  ibrav=1
  a=10
  nat=8
  ntyp=2,
  ecutwfc=50
/
&electrons
  electron_maxstep = 100
  mixing_beta = 0.2
  conv_thr = 1.D-6
/
&ions
/
&cell
/
ATOMIC_SPECIES
C   1.0  C_ONCV_PBE-1.0.upf 
H   1.0  H_ONCV_PBE-1.0.upf 
ATOMIC_POSITIONS {angstrom}
C 17.51044 21.76508 19.94512
C 18.43016 23.04128 20.06152
H 17.6264 21.21784 20.89124
H 17.7938 21.07852 19.10296
H 16.47972 22.0762 19.76692
H 19.01828 23.0336 21.01808
H 17.8072 23.97588 19.93056
H 19.11376 23.12864 19.21116
