&control
  calculation='scf'
  prefix='ethane'
  pseudo_dir='../../pseudo-potentials'
  outdir='./out'
  restart_mode='from_scratch'
  nstep=20000
  max_seconds=14000
  tprnfor=.true.
  disk_io='none'
/
&system
  ibrav=1
  a=10
  nat=8
  ntyp=2,
  ecutwfc=50
/
&electrons
  electron_maxstep = 100
  mixing_beta = 0.2
  conv_thr = 1.D-6
/
&ions
/
&cell
/
ATOMIC_SPECIES
C   1.0  C_ONCV_PBE-1.0.upf 
H   1.0  H_ONCV_PBE-1.0.upf 
ATOMIC_POSITIONS {angstrom}
C 17.4974 21.8152 19.98284
C 18.46192 22.9868 20.01052
H 16.83248 22.09304 19.1768
H 16.95448 21.80504 20.9428
H 17.82728 20.74816 19.95648
H 18.33224 23.37528 20.99532
H 18.14756 23.70676 19.2628
H 19.52196 22.83416 19.74504
