&control
  calculation='scf'
  prefix='ethane'
  pseudo_dir='../../pseudo-potentials'
  outdir='./out'
  restart_mode='from_scratch'
  nstep=20000
  max_seconds=14000
  tprnfor=.true.
  disk_io='none'
/
&system
  ibrav=1
  a=10
  nat=8
  ntyp=2,
  ecutwfc=50
/
&electrons
  electron_maxstep = 100
  mixing_beta = 0.2
  conv_thr = 1.D-6
/
&ions
/
&cell
/
ATOMIC_SPECIES
C   1.0  C_ONCV_PBE-1.0.upf 
H   1.0  H_ONCV_PBE-1.0.upf 
ATOMIC_POSITIONS {angstrom}
C 17.4396 21.90064 19.88972
C 18.51284 22.918 20.13092
H 16.55756 22.23676 19.25196
H 16.97824 21.38376 20.68884
H 17.84136 21.03844 19.32844
H 19.44396 22.63532 19.60328
H 18.78604 23.22744 21.11408
H 18.09108 23.84296 19.76784
