&control
  calculation='scf'
  prefix='ethane'
  pseudo_dir='../../pseudo-potentials'
  outdir='./out'
  restart_mode='from_scratch'
  nstep=20000
  max_seconds=14000
  tprnfor=.true.
  disk_io='none'
/
&system
  ibrav=1
  a=10
  nat=8
  ntyp=2,
  ecutwfc=50
/
&electrons
  electron_maxstep = 100
  mixing_beta = 0.2
  conv_thr = 1.D-6
/
&ions
/
&cell
/
ATOMIC_SPECIES
C   1.0  C_ONCV_PBE-1.0.upf 
H   1.0  H_ONCV_PBE-1.0.upf 
ATOMIC_POSITIONS {angstrom}
C 17.52596 21.79872 19.96504
C 18.41544 23.00968 20.0274
H 17.679 21.2092 19.04016
H 16.43892 22.06028 20.017
H 17.6712 21.18652 20.84792
H 17.8312 23.95828 19.8568
H 19.26004 23.07676 19.36388
H 18.94968 22.99512 20.96416
