&control
  calculation='scf'
  prefix='ethane'
  pseudo_dir='../../pseudo-potentials'
  outdir='./out'
  restart_mode='from_scratch'
  nstep=20000
  max_seconds=14000
  tprnfor=.true.
  disk_io='none'
/
&system
  ibrav=1
  a=10
  nat=8
  ntyp=2,
  ecutwfc=50
/
&electrons
  electron_maxstep = 100
  mixing_beta = 0.2
  conv_thr = 1.D-6
/
&ions
/
&cell
/
ATOMIC_SPECIES
C   1.0  C_ONCV_PBE-1.0.upf 
H   1.0  H_ONCV_PBE-1.0.upf 
ATOMIC_POSITIONS {angstrom}
C 17.45508 21.80084 20.00372
C 18.49444 23.00704 19.98308
H 18.0096 20.98824 19.54844
H 16.55064 22.10436 19.48124
H 16.98868 21.491 20.90404
H 19.41796 22.5526 20.3098
H 18.24948 23.70336 20.79908
H 18.51688 23.65308 19.1146
