&control
  calculation='scf'
  prefix='ethane'
  pseudo_dir='../../pseudo-potentials'
  outdir='./out'
  restart_mode='from_scratch'
  nstep=20000
  max_seconds=14000
  tprnfor=.true.
  disk_io='none'
/
&system
  ibrav=1
  a=10
  nat=8
  ntyp=2,
  ecutwfc=50
/
&electrons
  electron_maxstep = 100
  mixing_beta = 0.2
  conv_thr = 1.D-6
/
&ions
/
&cell
/
ATOMIC_SPECIES
C   1.0  C_ONCV_PBE-1.0.upf 
H   1.0  H_ONCV_PBE-1.0.upf 
ATOMIC_POSITIONS {angstrom}
C 17.54904 21.7684 19.98892
C 18.40796 23.04024 20.04284
H 18.17248 20.88024 19.80684
H 16.94648 21.86404 19.07196
H 16.70204 21.56296 20.708
H 17.85196 23.8564 20.57568
H 18.5636 23.41424 19.0168
H 19.40728 22.90528 20.44236
