&control
  calculation='scf'
  prefix='ethane'
  pseudo_dir='../../pseudo-potentials'
  outdir='./out'
  restart_mode='from_scratch'
  nstep=20000
  max_seconds=14000
  tprnfor=.true.
  disk_io='none'
/
&system
  ibrav=1
  a=10
  nat=8
  ntyp=2,
  ecutwfc=50
/
&electrons
  electron_maxstep = 100
  mixing_beta = 0.2
  conv_thr = 1.D-6
/
&ions
/
&cell
/
ATOMIC_SPECIES
C   1.0  C_ONCV_PBE-1.0.upf 
H   1.0  H_ONCV_PBE-1.0.upf 
ATOMIC_POSITIONS {angstrom}
C 17.46556 21.83468 19.9156
C 18.47676 22.9714 20.11124
H 16.72252 21.83844 20.68612
H 18.00932 20.92388 19.89464
H 16.9216 21.87008 18.98236
H 17.9048 23.80392 20.46428
H 18.7742 23.41248 19.1378
H 19.48644 22.66544 20.51532
