&control
  calculation='scf'
  prefix='ethane'
  pseudo_dir='../../pseudo-potentials'
  outdir='./out'
  restart_mode='from_scratch'
  nstep=20000
  max_seconds=14000
  tprnfor=.true.
  disk_io='none'
/
&system
  ibrav=1
  a=10
  nat=8
  ntyp=2,
  ecutwfc=50
/
&electrons
  electron_maxstep = 100
  mixing_beta = 0.2
  conv_thr = 1.D-6
/
&ions
/
&cell
/
ATOMIC_SPECIES
C   1.0  C_ONCV_PBE-1.0.upf 
H   1.0  H_ONCV_PBE-1.0.upf 
ATOMIC_POSITIONS {angstrom}
C 17.4182 21.86844 19.862
C 18.5292 22.93 20.16424
H 17.44692 21.43532 18.91048
H 16.49216 22.45728 19.97736
H 17.51128 20.98056 20.53052
H 19.55224 22.6682 20.45244
H 18.0476 23.71572 20.67936
H 18.70816 23.348 19.13752
