&control
  calculation='scf'
  prefix='ethane'
  pseudo_dir='../../pseudo-potentials'
  outdir='./out'
  restart_mode='from_scratch'
  nstep=20000
  max_seconds=14000
  tprnfor=.true.
  disk_io='none'
/
&system
  ibrav=1
  a=10
  nat=8
  ntyp=2,
  ecutwfc=50
/
&electrons
  electron_maxstep = 100
  mixing_beta = 0.2
  conv_thr = 1.D-6
/
&ions
/
&cell
/
ATOMIC_SPECIES
C   1.0  C_ONCV_PBE-1.0.upf 
H   1.0  H_ONCV_PBE-1.0.upf 
ATOMIC_POSITIONS {angstrom}
C 17.55436 21.76824 19.995
C 18.3784 23.05144 20.00652
H 17.99188 21.012 20.64552
H 17.65356 21.3894 18.96728
H 16.4752 21.87216 20.29936
H 18.41252 23.56336 20.96212
H 17.98008 23.61876 19.125
H 19.41972 22.8964 19.98248
