&control
  calculation='scf'
  prefix='ethane'
  pseudo_dir='../../pseudo-potentials'
  outdir='./out'
  restart_mode='from_scratch'
  nstep=20000
  max_seconds=14000
  tprnfor=.true.
  disk_io='none'
/
&system
  ibrav=1
  a=10
  nat=8
  ntyp=2,
  ecutwfc=50
/
&electrons
  electron_maxstep = 100
  mixing_beta = 0.2
  conv_thr = 1.D-6
/
&ions
/
&cell
/
ATOMIC_SPECIES
C   1.0  C_ONCV_PBE-1.0.upf 
H   1.0  H_ONCV_PBE-1.0.upf 
ATOMIC_POSITIONS {angstrom}
C 17.41768 21.87664 19.88212
C 18.53264 22.9366 20.10724
H 17.30336 21.54496 18.84332
H 16.50492 22.41128 20.23588
H 17.61208 20.86316 20.38288
H 19.43844 22.61396 20.53076
H 18.10512 23.4986 20.866
H 18.7596 23.49656 19.2678
