&control
  calculation='scf'
  prefix='ethane'
  pseudo_dir='../../pseudo-potentials'
  outdir='./out'
  restart_mode='from_scratch'
  nstep=20000
  max_seconds=14000
  tprnfor=.true.
  disk_io='none'
/
&system
  ibrav=1
  a=10
  nat=8
  ntyp=2,
  ecutwfc=50
/
&electrons
  electron_maxstep = 100
  mixing_beta = 0.2
  conv_thr = 1.D-6
/
&ions
/
&cell
/
ATOMIC_SPECIES
C   1.0  C_ONCV_PBE-1.0.upf 
H   1.0  H_ONCV_PBE-1.0.upf 
ATOMIC_POSITIONS {angstrom}
C 17.49256 21.78476 19.99052
C 18.43972 23.02668 20.0264
H 18.04152 20.846 19.867
H 16.80368 21.92524 19.09576
H 16.76096 21.78208 20.82552
H 19.50316 22.61104 20.0096
H 18.46516 23.77528 20.8968
H 18.36396 23.5104 19.10392
