&control
  calculation='scf'
  prefix='ethane'
  pseudo_dir='../../pseudo-potentials'
  outdir='./out'
  restart_mode='from_scratch'
  nstep=20000
  max_seconds=14000
  tprnfor=.true.
  disk_io='none'
/
&system
  ibrav=1
  a=10
  nat=8
  ntyp=2,
  ecutwfc=50
/
&electrons
  electron_maxstep = 100
  mixing_beta = 0.2
  conv_thr = 1.D-6
/
&ions
/
&cell
/
ATOMIC_SPECIES
C   1.0  C_ONCV_PBE-1.0.upf 
H   1.0  H_ONCV_PBE-1.0.upf 
ATOMIC_POSITIONS {angstrom}
C 17.44576 21.84256 19.86232
C 18.49096 22.95716 20.12408
H 17.06168 21.6472 20.85388
H 17.82204 20.86532 19.437
H 16.65796 22.21512 19.18228
H 19.51256 22.70444 19.80592
H 18.6342 23.25924 21.1894
H 18.19728 23.89832 19.69344
