&control
  calculation='scf'
  prefix='ethane'
  pseudo_dir='../../pseudo-potentials'
  outdir='./out'
  restart_mode='from_scratch'
  nstep=20000
  max_seconds=14000
  tprnfor=.true.
  disk_io='none'
/
&system
  ibrav=1
  a=10
  nat=8
  ntyp=2,
  ecutwfc=50
/
&electrons
  electron_maxstep = 100
  mixing_beta = 0.2
  conv_thr = 1.D-6
/
&ions
/
&cell
/
ATOMIC_SPECIES
C   1.0  C_ONCV_PBE-1.0.upf 
H   1.0  H_ONCV_PBE-1.0.upf 
ATOMIC_POSITIONS {angstrom}
C 17.49036 21.81728 19.94804
C 18.4766 22.9884 20.03876
H 17.6402 20.89836 20.5476
H 17.1734 21.54844 18.898
H 16.51288 22.27084 20.20992
H 18.77576 23.46712 19.09848
H 19.30264 22.59968 20.64496
H 18.12072 23.73432 20.75792
