&control
  calculation='scf'
  prefix='ethane'
  pseudo_dir='../../pseudo-potentials'
  outdir='./out'
  restart_mode='from_scratch'
  nstep=20000
  max_seconds=14000
  tprnfor=.true.
  disk_io='none'
/
&system
  ibrav=1
  a=10
  nat=8
  ntyp=2,
  ecutwfc=50
/
&electrons
  electron_maxstep = 100
  mixing_beta = 0.2
  conv_thr = 1.D-6
/
&ions
/
&cell
/
ATOMIC_SPECIES
C   1.0  C_ONCV_PBE-1.0.upf 
H   1.0  H_ONCV_PBE-1.0.upf 
ATOMIC_POSITIONS {angstrom}
C 17.55728 21.75644 20.00252
C 18.36892 23.05324 20.04016
H 17.6466 21.5832 18.91384
H 16.56056 21.86436 20.32912
H 17.9716 20.80396 20.47312
H 18.39844 23.2868 18.92516
H 19.382 22.93844 20.289
H 18.05172 23.9942 20.56128
